(set-logic ALL)
(declare-fun f$ (Int) Int)
(declare-fun lift_h$ (Int) Int)
(declare-fun lift_g$ (Int) Int)
(assert (exists ((lift_x$ Int)) (and (>= lift_x$ 0) (and (>= (lift_h$ lift_x$) 0) (= (f$ (lift_g$ (lift_h$ lift_x$))) 0)))))
(assert true)
(check-sat)
